p tw 137 46581 2 
1 4 
1 6 
1 8 
1 10 
1 12 
1 14 
1 16 
1 18 
1 20 
1 22 
1 24 
1 26 
1 28 
1 30 
1 32 
1 34 
1 36 
1 38 
1 40 
1 42 
1 44 
1 46 
1 48 
1 50 
1 52 
1 54 
1 56 
1 58 
1 60 
1 62 
1 64 
1 66 
1 68 
1 70 
1 72 
1 74 
1 76 
1 78 
1 80 
1 82 
1 84 
1 86 
1 88 
1 90 
1 92 
1 94 
1 96 
1 98 
1 100 
1 102 
1 104 
1 106 
1 108 
1 110 
1 112 
1 114 
1 116 
1 118 
1 120 
1 122 
1 124 
1 126 
1 128 
1 130 
1 132 
1 134 
1 136 
2 3 
2 4 
2 7 
2 10 
2 12 
2 14 
2 17 
2 18 
2 19 
2 23 
2 25 
2 26 
2 28 
2 30 
2 31 
2 32 
2 35 
2 36 
2 37 
2 38 
2 40 
2 41 
2 42 
2 48 
2 49 
2 51 
2 57 
2 58 
2 62 
2 70 
2 71 
2 73 
2 75 
2 77 
2 78 
2 79 
2 81 
2 82 
2 85 
2 87 
2 92 
2 93 
2 95 
2 97 
2 98 
2 100 
2 101 
2 102 
2 104 
2 107 
2 108 
2 110 
2 111 
2 112 
2 113 
2 114 
2 119 
2 122 
2 125 
2 126 
2 127 
2 128 
2 129 
2 130 
2 131 
2 135 
2 136 
3 6 
3 7 
3 9 
3 10 
3 12 
3 14 
3 16 
3 17 
3 21 
3 22 
3 23 
3 25 
3 28 
3 30 
3 34 
3 35 
3 40 
3 44 
3 45 
3 46 
3 47 
3 48 
3 51 
3 53 
3 54 
3 55 
3 56 
3 57 
3 60 
3 61 
3 62 
3 64 
3 65 
3 66 
3 67 
3 68 
3 69 
3 70 
3 73 
3 75 
3 77 
3 81 
3 84 
3 85 
3 87 
3 89 
3 90 
3 91 
3 92 
3 95 
3 97 
3 100 
3 104 
3 106 
3 107 
3 110 
3 116 
3 117 
3 118 
3 119 
3 121 
3 122 
3 124 
3 125 
3 133 
3 134 
3 135 
4 5 
4 6 
4 9 
4 12 
4 14 
4 16 
4 19 
4 20 
4 21 
4 25 
4 27 
4 28 
4 30 
4 32 
4 33 
4 34 
4 37 
4 38 
4 39 
4 40 
4 42 
4 43 
4 44 
4 50 
4 51 
4 53 
4 59 
4 60 
4 64 
4 72 
4 73 
4 75 
4 77 
4 79 
4 80 
4 81 
4 83 
4 84 
4 87 
4 89 
4 94 
4 95 
4 97 
4 99 
4 100 
4 102 
4 103 
4 104 
4 106 
4 109 
4 110 
4 112 
4 113 
4 114 
4 115 
4 116 
4 121 
4 124 
4 127 
4 128 
4 129 
4 130 
4 131 
4 132 
4 133 
4 137 
5 8 
5 9 
5 11 
5 12 
5 14 
5 16 
5 18 
5 19 
5 23 
5 24 
5 25 
5 27 
5 30 
5 32 
5 36 
5 37 
5 42 
5 46 
5 47 
5 48 
5 49 
5 50 
5 53 
5 55 
5 56 
5 57 
5 58 
5 59 
5 62 
5 63 
5 64 
5 66 
5 67 
5 68 
5 69 
5 70 
5 71 
5 72 
5 75 
5 77 
5 79 
5 83 
5 86 
5 87 
5 89 
5 91 
5 92 
5 93 
5 94 
5 97 
5 99 
5 102 
5 106 
5 108 
5 109 
5 112 
5 118 
5 119 
5 120 
5 121 
5 123 
5 124 
5 126 
5 127 
5 135 
5 136 
5 137 
6 7 
6 8 
6 11 
6 14 
6 16 
6 18 
6 21 
6 22 
6 23 
6 27 
6 29 
6 30 
6 32 
6 34 
6 35 
6 36 
6 39 
6 40 
6 41 
6 42 
6 44 
6 45 
6 46 
6 52 
6 53 
6 55 
6 61 
6 62 
6 66 
6 74 
6 75 
6 77 
6 79 
6 81 
6 82 
6 83 
6 85 
6 86 
6 89 
6 91 
6 96 
6 97 
6 99 
6 101 
6 102 
6 104 
6 105 
6 106 
6 108 
6 111 
6 112 
6 114 
6 115 
6 116 
6 117 
6 118 
6 123 
6 126 
6 129 
6 130 
6 131 
6 132 
6 133 
6 134 
6 135 
7 10 
7 11 
7 13 
7 14 
7 16 
7 18 
7 20 
7 21 
7 25 
7 26 
7 27 
7 29 
7 32 
7 34 
7 38 
7 39 
7 44 
7 48 
7 49 
7 50 
7 51 
7 52 
7 55 
7 57 
7 58 
7 59 
7 60 
7 61 
7 64 
7 65 
7 66 
7 68 
7 69 
7 70 
7 71 
7 72 
7 73 
7 74 
7 77 
7 79 
7 81 
7 85 
7 88 
7 89 
7 91 
7 93 
7 94 
7 95 
7 96 
7 99 
7 101 
7 104 
7 108 
7 110 
7 111 
7 114 
7 120 
7 121 
7 122 
7 123 
7 125 
7 126 
7 128 
7 129 
7 137 
8 9 
8 10 
8 13 
8 16 
8 18 
8 20 
8 23 
8 24 
8 25 
8 29 
8 31 
8 32 
8 34 
8 36 
8 37 
8 38 
8 41 
8 42 
8 43 
8 44 
8 46 
8 47 
8 48 
8 54 
8 55 
8 57 
8 63 
8 64 
8 68 
8 76 
8 77 
8 79 
8 81 
8 83 
8 84 
8 85 
8 87 
8 88 
8 91 
8 93 
8 98 
8 99 
8 101 
8 103 
8 104 
8 106 
8 107 
8 108 
8 110 
8 113 
8 114 
8 116 
8 117 
8 118 
8 119 
8 120 
8 125 
8 128 
8 131 
8 132 
8 133 
8 134 
8 135 
8 136 
8 137 
9 12 
9 13 
9 15 
9 16 
9 18 
9 20 
9 22 
9 23 
9 27 
9 28 
9 29 
9 31 
9 34 
9 36 
9 40 
9 41 
9 46 
9 50 
9 51 
9 52 
9 53 
9 54 
9 57 
9 59 
9 60 
9 61 
9 62 
9 63 
9 66 
9 67 
9 68 
9 70 
9 71 
9 72 
9 73 
9 74 
9 75 
9 76 
9 79 
9 81 
9 83 
9 87 
9 90 
9 91 
9 93 
9 95 
9 96 
9 97 
9 98 
9 101 
9 103 
9 106 
9 110 
9 112 
9 113 
9 116 
9 122 
9 123 
9 124 
9 125 
9 127 
9 128 
9 130 
9 131 
10 11 
10 12 
10 15 
10 18 
10 20 
10 22 
10 25 
10 26 
10 27 
10 31 
10 33 
10 34 
10 36 
10 38 
10 39 
10 40 
10 43 
10 44 
10 45 
10 46 
10 48 
10 49 
10 50 
10 56 
10 57 
10 59 
10 65 
10 66 
10 70 
10 78 
10 79 
10 81 
10 83 
10 85 
10 86 
10 87 
10 89 
10 90 
10 93 
10 95 
10 100 
10 101 
10 103 
10 105 
10 106 
10 108 
10 109 
10 110 
10 112 
10 115 
10 116 
10 118 
10 119 
10 120 
10 121 
10 122 
10 127 
10 130 
10 133 
10 134 
10 135 
10 136 
10 137 
11 14 
11 15 
11 17 
11 18 
11 20 
11 22 
11 24 
11 25 
11 29 
11 30 
11 31 
11 33 
11 36 
11 38 
11 42 
11 43 
11 48 
11 52 
11 53 
11 54 
11 55 
11 56 
11 59 
11 61 
11 62 
11 63 
11 64 
11 65 
11 68 
11 69 
11 70 
11 72 
11 73 
11 74 
11 75 
11 76 
11 77 
11 78 
11 81 
11 83 
11 85 
11 89 
11 92 
11 93 
11 95 
11 97 
11 98 
11 99 
11 100 
11 103 
11 105 
11 108 
11 112 
11 114 
11 115 
11 118 
11 124 
11 125 
11 126 
11 127 
11 129 
11 130 
11 132 
11 133 
12 13 
12 14 
12 17 
12 20 
12 22 
12 24 
12 27 
12 28 
12 29 
12 33 
12 35 
12 36 
12 38 
12 40 
12 41 
12 42 
12 45 
12 46 
12 47 
12 48 
12 50 
12 51 
12 52 
12 58 
12 59 
12 61 
12 67 
12 68 
12 72 
12 80 
12 81 
12 83 
12 85 
12 87 
12 88 
12 89 
12 91 
12 92 
12 95 
12 97 
12 102 
12 103 
12 105 
12 107 
12 108 
12 110 
12 111 
12 112 
12 114 
12 117 
12 118 
12 120 
12 121 
12 122 
12 123 
12 124 
12 129 
12 132 
12 135 
12 136 
12 137 
13 16 
13 17 
13 19 
13 20 
13 22 
13 24 
13 26 
13 27 
13 31 
13 32 
13 33 
13 35 
13 38 
13 40 
13 44 
13 45 
13 50 
13 54 
13 55 
13 56 
13 57 
13 58 
13 61 
13 63 
13 64 
13 65 
13 66 
13 67 
13 70 
13 71 
13 72 
13 74 
13 75 
13 76 
13 77 
13 78 
13 79 
13 80 
13 83 
13 85 
13 87 
13 91 
13 94 
13 95 
13 97 
13 99 
13 100 
13 101 
13 102 
13 105 
13 107 
13 110 
13 114 
13 116 
13 117 
13 120 
13 126 
13 127 
13 128 
13 129 
13 131 
13 132 
13 134 
13 135 
14 15 
14 16 
14 19 
14 22 
14 24 
14 26 
14 29 
14 30 
14 31 
14 35 
14 37 
14 38 
14 40 
14 42 
14 43 
14 44 
14 47 
14 48 
14 49 
14 50 
14 52 
14 53 
14 54 
14 60 
14 61 
14 63 
14 69 
14 70 
14 74 
14 82 
14 83 
14 85 
14 87 
14 89 
14 90 
14 91 
14 93 
14 94 
14 97 
14 99 
14 104 
14 105 
14 107 
14 109 
14 110 
14 112 
14 113 
14 114 
14 116 
14 119 
14 120 
14 122 
14 123 
14 124 
14 125 
14 126 
14 131 
14 134 
14 137 
15 18 
15 19 
15 21 
15 22 
15 24 
15 26 
15 28 
15 29 
15 33 
15 34 
15 35 
15 37 
15 40 
15 42 
15 46 
15 47 
15 52 
15 56 
15 57 
15 58 
15 59 
15 60 
15 63 
15 65 
15 66 
15 67 
15 68 
15 69 
15 72 
15 73 
15 74 
15 76 
15 77 
15 78 
15 79 
15 80 
15 81 
15 82 
15 85 
15 87 
15 89 
15 93 
15 96 
15 97 
15 99 
15 101 
15 102 
15 103 
15 104 
15 107 
15 109 
15 112 
15 116 
15 118 
15 119 
15 122 
15 128 
15 129 
15 130 
15 131 
15 133 
15 134 
15 136 
15 137 
16 17 
16 18 
16 21 
16 24 
16 26 
16 28 
16 31 
16 32 
16 33 
16 37 
16 39 
16 40 
16 42 
16 44 
16 45 
16 46 
16 49 
16 50 
16 51 
16 52 
16 54 
16 55 
16 56 
16 62 
16 63 
16 65 
16 71 
16 72 
16 76 
16 84 
16 85 
16 87 
16 89 
16 91 
16 92 
16 93 
16 95 
16 96 
16 99 
16 101 
16 106 
16 107 
16 109 
16 111 
16 112 
16 114 
16 115 
16 116 
16 118 
16 121 
16 122 
16 124 
16 125 
16 126 
16 127 
16 128 
16 133 
16 136 
17 20 
17 21 
17 23 
17 24 
17 26 
17 28 
17 30 
17 31 
17 35 
17 36 
17 37 
17 39 
17 42 
17 44 
17 48 
17 49 
17 54 
17 58 
17 59 
17 60 
17 61 
17 62 
17 65 
17 67 
17 68 
17 69 
17 70 
17 71 
17 74 
17 75 
17 76 
17 78 
17 79 
17 80 
17 81 
17 82 
17 83 
17 84 
17 87 
17 89 
17 91 
17 95 
17 98 
17 99 
17 101 
17 103 
17 104 
17 105 
17 106 
17 109 
17 111 
17 114 
17 118 
17 120 
17 121 
17 124 
17 130 
17 131 
17 132 
17 133 
17 135 
17 136 
18 19 
18 20 
18 23 
18 26 
18 28 
18 30 
18 33 
18 34 
18 35 
18 39 
18 41 
18 42 
18 44 
18 46 
18 47 
18 48 
18 51 
18 52 
18 53 
18 54 
18 56 
18 57 
18 58 
18 64 
18 65 
18 67 
18 73 
18 74 
18 78 
18 86 
18 87 
18 89 
18 91 
18 93 
18 94 
18 95 
18 97 
18 98 
18 101 
18 103 
18 108 
18 109 
18 111 
18 113 
18 114 
18 116 
18 117 
18 118 
18 120 
18 123 
18 124 
18 126 
18 127 
18 128 
18 129 
18 130 
18 135 
19 22 
19 23 
19 25 
19 26 
19 28 
19 30 
19 32 
19 33 
19 37 
19 38 
19 39 
19 41 
19 44 
19 46 
19 50 
19 51 
19 56 
19 60 
19 61 
19 62 
19 63 
19 64 
19 67 
19 69 
19 70 
19 71 
19 72 
19 73 
19 76 
19 77 
19 78 
19 80 
19 81 
19 82 
19 83 
19 84 
19 85 
19 86 
19 89 
19 91 
19 93 
19 97 
19 100 
19 101 
19 103 
19 105 
19 106 
19 107 
19 108 
19 111 
19 113 
19 116 
19 120 
19 122 
19 123 
19 126 
19 132 
19 133 
19 134 
19 135 
19 137 
20 21 
20 22 
20 25 
20 28 
20 30 
20 32 
20 35 
20 36 
20 37 
20 41 
20 43 
20 44 
20 46 
20 48 
20 49 
20 50 
20 53 
20 54 
20 55 
20 56 
20 58 
20 59 
20 60 
20 66 
20 67 
20 69 
20 75 
20 76 
20 80 
20 88 
20 89 
20 91 
20 93 
20 95 
20 96 
20 97 
20 99 
20 100 
20 103 
20 105 
20 110 
20 111 
20 113 
20 115 
20 116 
20 118 
20 119 
20 120 
20 122 
20 125 
20 126 
20 128 
20 129 
20 130 
20 131 
20 132 
20 137 
21 24 
21 25 
21 27 
21 28 
21 30 
21 32 
21 34 
21 35 
21 39 
21 40 
21 41 
21 43 
21 46 
21 48 
21 52 
21 53 
21 58 
21 62 
21 63 
21 64 
21 65 
21 66 
21 69 
21 71 
21 72 
21 73 
21 74 
21 75 
21 78 
21 79 
21 80 
21 82 
21 83 
21 84 
21 85 
21 86 
21 87 
21 88 
21 91 
21 93 
21 95 
21 99 
21 102 
21 103 
21 105 
21 107 
21 108 
21 109 
21 110 
21 113 
21 115 
21 118 
21 122 
21 124 
21 125 
21 128 
21 134 
21 135 
21 136 
21 137 
22 23 
22 24 
22 27 
22 30 
22 32 
22 34 
22 37 
22 38 
22 39 
22 43 
22 45 
22 46 
22 48 
22 50 
22 51 
22 52 
22 55 
22 56 
22 57 
22 58 
22 60 
22 61 
22 62 
22 68 
22 69 
22 71 
22 77 
22 78 
22 82 
22 90 
22 91 
22 93 
22 95 
22 97 
22 98 
22 99 
22 101 
22 102 
22 105 
22 107 
22 112 
22 113 
22 115 
22 117 
22 118 
22 120 
22 121 
22 122 
22 124 
22 127 
22 128 
22 130 
22 131 
22 132 
22 133 
22 134 
23 26 
23 27 
23 29 
23 30 
23 32 
23 34 
23 36 
23 37 
23 41 
23 42 
23 43 
23 45 
23 48 
23 50 
23 54 
23 55 
23 60 
23 64 
23 65 
23 66 
23 67 
23 68 
23 71 
23 73 
23 74 
23 75 
23 76 
23 77 
23 80 
23 81 
23 82 
23 84 
23 85 
23 86 
23 87 
23 88 
23 89 
23 90 
23 93 
23 95 
23 97 
23 101 
23 104 
23 105 
23 107 
23 109 
23 110 
23 111 
23 112 
23 115 
23 117 
23 120 
23 124 
23 126 
23 127 
23 130 
23 136 
23 137 
24 25 
24 26 
24 29 
24 32 
24 34 
24 36 
24 39 
24 40 
24 41 
24 45 
24 47 
24 48 
24 50 
24 52 
24 53 
24 54 
24 57 
24 58 
24 59 
24 60 
24 62 
24 63 
24 64 
24 70 
24 71 
24 73 
24 79 
24 80 
24 84 
24 92 
24 93 
24 95 
24 97 
24 99 
24 100 
24 101 
24 103 
24 104 
24 107 
24 109 
24 114 
24 115 
24 117 
24 119 
24 120 
24 122 
24 123 
24 124 
24 126 
24 129 
24 130 
24 132 
24 133 
24 134 
24 135 
24 136 
25 28 
25 29 
25 31 
25 32 
25 34 
25 36 
25 38 
25 39 
25 43 
25 44 
25 45 
25 47 
25 50 
25 52 
25 56 
25 57 
25 62 
25 66 
25 67 
25 68 
25 69 
25 70 
25 73 
25 75 
25 76 
25 77 
25 78 
25 79 
25 82 
25 83 
25 84 
25 86 
25 87 
25 88 
25 89 
25 90 
25 91 
25 92 
25 95 
25 97 
25 99 
25 103 
25 106 
25 107 
25 109 
25 111 
25 112 
25 113 
25 114 
25 117 
25 119 
25 122 
25 126 
25 128 
25 129 
25 132 
26 27 
26 28 
26 31 
26 34 
26 36 
26 38 
26 41 
26 42 
26 43 
26 47 
26 49 
26 50 
26 52 
26 54 
26 55 
26 56 
26 59 
26 60 
26 61 
26 62 
26 64 
26 65 
26 66 
26 72 
26 73 
26 75 
26 81 
26 82 
26 86 
26 94 
26 95 
26 97 
26 99 
26 101 
26 102 
26 103 
26 105 
26 106 
26 109 
26 111 
26 116 
26 117 
26 119 
26 121 
26 122 
26 124 
26 125 
26 126 
26 128 
26 131 
26 132 
26 134 
26 135 
26 136 
26 137 
27 30 
27 31 
27 33 
27 34 
27 36 
27 38 
27 40 
27 41 
27 45 
27 46 
27 47 
27 49 
27 52 
27 54 
27 58 
27 59 
27 64 
27 68 
27 69 
27 70 
27 71 
27 72 
27 75 
27 77 
27 78 
27 79 
27 80 
27 81 
27 84 
27 85 
27 86 
27 88 
27 89 
27 90 
27 91 
27 92 
27 93 
27 94 
27 97 
27 99 
27 101 
27 105 
27 108 
27 109 
27 111 
27 113 
27 114 
27 115 
27 116 
27 119 
27 121 
27 124 
27 128 
27 130 
27 131 
27 134 
28 29 
28 30 
28 33 
28 36 
28 38 
28 40 
28 43 
28 44 
28 45 
28 49 
28 51 
28 52 
28 54 
28 56 
28 57 
28 58 
28 61 
28 62 
28 63 
28 64 
28 66 
28 67 
28 68 
28 74 
28 75 
28 77 
28 83 
28 84 
28 88 
28 96 
28 97 
28 99 
28 101 
28 103 
28 104 
28 105 
28 107 
28 108 
28 111 
28 113 
28 118 
28 119 
28 121 
28 123 
28 124 
28 126 
28 127 
28 128 
28 130 
28 133 
28 134 
28 136 
28 137 
29 32 
29 33 
29 35 
29 36 
29 38 
29 40 
29 42 
29 43 
29 47 
29 48 
29 49 
29 51 
29 54 
29 56 
29 60 
29 61 
29 66 
29 70 
29 71 
29 72 
29 73 
29 74 
29 77 
29 79 
29 80 
29 81 
29 82 
29 83 
29 86 
29 87 
29 88 
29 90 
29 91 
29 92 
29 93 
29 94 
29 95 
29 96 
29 99 
29 101 
29 103 
29 107 
29 110 
29 111 
29 113 
29 115 
29 116 
29 117 
29 118 
29 121 
29 123 
29 126 
29 130 
29 132 
29 133 
29 136 
30 31 
30 32 
30 35 
30 38 
30 40 
30 42 
30 45 
30 46 
30 47 
30 51 
30 53 
30 54 
30 56 
30 58 
30 59 
30 60 
30 63 
30 64 
30 65 
30 66 
30 68 
30 69 
30 70 
30 76 
30 77 
30 79 
30 85 
30 86 
30 90 
30 98 
30 99 
30 101 
30 103 
30 105 
30 106 
30 107 
30 109 
30 110 
30 113 
30 115 
30 120 
30 121 
30 123 
30 125 
30 126 
30 128 
30 129 
30 130 
30 132 
30 135 
30 136 
31 34 
31 35 
31 37 
31 38 
31 40 
31 42 
31 44 
31 45 
31 49 
31 50 
31 51 
31 53 
31 56 
31 58 
31 62 
31 63 
31 68 
31 72 
31 73 
31 74 
31 75 
31 76 
31 79 
31 81 
31 82 
31 83 
31 84 
31 85 
31 88 
31 89 
31 90 
31 92 
31 93 
31 94 
31 95 
31 96 
31 97 
31 98 
31 101 
31 103 
31 105 
31 109 
31 112 
31 113 
31 115 
31 117 
31 118 
31 119 
31 120 
31 123 
31 125 
31 128 
31 132 
31 134 
31 135 
32 33 
32 34 
32 37 
32 40 
32 42 
32 44 
32 47 
32 48 
32 49 
32 53 
32 55 
32 56 
32 58 
32 60 
32 61 
32 62 
32 65 
32 66 
32 67 
32 68 
32 70 
32 71 
32 72 
32 78 
32 79 
32 81 
32 87 
32 88 
32 92 
32 100 
32 101 
32 103 
32 105 
32 107 
32 108 
32 109 
32 111 
32 112 
32 115 
32 117 
32 122 
32 123 
32 125 
32 127 
32 128 
32 130 
32 131 
32 132 
32 134 
32 137 
33 36 
33 37 
33 39 
33 40 
33 42 
33 44 
33 46 
33 47 
33 51 
33 52 
33 53 
33 55 
33 58 
33 60 
33 64 
33 65 
33 70 
33 74 
33 75 
33 76 
33 77 
33 78 
33 81 
33 83 
33 84 
33 85 
33 86 
33 87 
33 90 
33 91 
33 92 
33 94 
33 95 
33 96 
33 97 
33 98 
33 99 
33 100 
33 103 
33 105 
33 107 
33 111 
33 114 
33 115 
33 117 
33 119 
33 120 
33 121 
33 122 
33 125 
33 127 
33 130 
33 134 
33 136 
33 137 
34 35 
34 36 
34 39 
34 42 
34 44 
34 46 
34 49 
34 50 
34 51 
34 55 
34 57 
34 58 
34 60 
34 62 
34 63 
34 64 
34 67 
34 68 
34 69 
34 70 
34 72 
34 73 
34 74 
34 80 
34 81 
34 83 
34 89 
34 90 
34 94 
34 102 
34 103 
34 105 
34 107 
34 109 
34 110 
34 111 
34 113 
34 114 
34 117 
34 119 
34 124 
34 125 
34 127 
34 129 
34 130 
34 132 
34 133 
34 134 
34 136 
35 38 
35 39 
35 41 
35 42 
35 44 
35 46 
35 48 
35 49 
35 53 
35 54 
35 55 
35 57 
35 60 
35 62 
35 66 
35 67 
35 72 
35 76 
35 77 
35 78 
35 79 
35 80 
35 83 
35 85 
35 86 
35 87 
35 88 
35 89 
35 92 
35 93 
35 94 
35 96 
35 97 
35 98 
35 99 
35 100 
35 101 
35 102 
35 105 
35 107 
35 109 
35 113 
35 116 
35 117 
35 119 
35 121 
35 122 
35 123 
35 124 
35 127 
35 129 
35 132 
35 136 
36 37 
36 38 
36 41 
36 44 
36 46 
36 48 
36 51 
36 52 
36 53 
36 57 
36 59 
36 60 
36 62 
36 64 
36 65 
36 66 
36 69 
36 70 
36 71 
36 72 
36 74 
36 75 
36 76 
36 82 
36 83 
36 85 
36 91 
36 92 
36 96 
36 104 
36 105 
36 107 
36 109 
36 111 
36 112 
36 113 
36 115 
36 116 
36 119 
36 121 
36 126 
36 127 
36 129 
36 131 
36 132 
36 134 
36 135 
36 136 
37 40 
37 41 
37 43 
37 44 
37 46 
37 48 
37 50 
37 51 
37 55 
37 56 
37 57 
37 59 
37 62 
37 64 
37 68 
37 69 
37 74 
37 78 
37 79 
37 80 
37 81 
37 82 
37 85 
37 87 
37 88 
37 89 
37 90 
37 91 
37 94 
37 95 
37 96 
37 98 
37 99 
37 100 
37 101 
37 102 
37 103 
37 104 
37 107 
37 109 
37 111 
37 115 
37 118 
37 119 
37 121 
37 123 
37 124 
37 125 
37 126 
37 129 
37 131 
37 134 
38 39 
38 40 
38 43 
38 46 
38 48 
38 50 
38 53 
38 54 
38 55 
38 59 
38 61 
38 62 
38 64 
38 66 
38 67 
38 68 
38 71 
38 72 
38 73 
38 74 
38 76 
38 77 
38 78 
38 84 
38 85 
38 87 
38 93 
38 94 
38 98 
38 106 
38 107 
38 109 
38 111 
38 113 
38 114 
38 115 
38 117 
38 118 
38 121 
38 123 
38 128 
38 129 
38 131 
38 133 
38 134 
38 136 
38 137 
39 42 
39 43 
39 45 
39 46 
39 48 
39 50 
39 52 
39 53 
39 57 
39 58 
39 59 
39 61 
39 64 
39 66 
39 70 
39 71 
39 76 
39 80 
39 81 
39 82 
39 83 
39 84 
39 87 
39 89 
39 90 
39 91 
39 92 
39 93 
39 96 
39 97 
39 98 
39 100 
39 101 
39 102 
39 103 
39 104 
39 105 
39 106 
39 109 
39 111 
39 113 
39 117 
39 120 
39 121 
39 123 
39 125 
39 126 
39 127 
39 128 
39 131 
39 133 
39 136 
40 41 
40 42 
40 45 
40 48 
40 50 
40 52 
40 55 
40 56 
40 57 
40 61 
40 63 
40 64 
40 66 
40 68 
40 69 
40 70 
40 73 
40 74 
40 75 
40 76 
40 78 
40 79 
40 80 
40 86 
40 87 
40 89 
40 95 
40 96 
40 100 
40 108 
40 109 
40 111 
40 113 
40 115 
40 116 
40 117 
40 119 
40 120 
40 123 
40 125 
40 130 
40 131 
40 133 
40 135 
40 136 
41 44 
41 45 
41 47 
41 48 
41 50 
41 52 
41 54 
41 55 
41 59 
41 60 
41 61 
41 63 
41 66 
41 68 
41 72 
41 73 
41 78 
41 82 
41 83 
41 84 
41 85 
41 86 
41 89 
41 91 
41 92 
41 93 
41 94 
41 95 
41 98 
41 99 
41 100 
41 102 
41 103 
41 104 
41 105 
41 106 
41 107 
41 108 
41 111 
41 113 
41 115 
41 119 
41 122 
41 123 
41 125 
41 127 
41 128 
41 129 
41 130 
41 133 
41 135 
42 43 
42 44 
42 47 
42 50 
42 52 
42 54 
42 57 
42 58 
42 59 
42 63 
42 65 
42 66 
42 68 
42 70 
42 71 
42 72 
42 75 
42 76 
42 77 
42 78 
42 80 
42 81 
42 82 
42 88 
42 89 
42 91 
42 97 
42 98 
42 102 
42 110 
42 111 
42 113 
42 115 
42 117 
42 118 
42 119 
42 121 
42 122 
42 125 
42 127 
42 132 
42 133 
42 135 
42 137 
43 46 
43 47 
43 49 
43 50 
43 52 
43 54 
43 56 
43 57 
43 61 
43 62 
43 63 
43 65 
43 68 
43 70 
43 74 
43 75 
43 80 
43 84 
43 85 
43 86 
43 87 
43 88 
43 91 
43 93 
43 94 
43 95 
43 96 
43 97 
43 100 
43 101 
43 102 
43 104 
43 105 
43 106 
43 107 
43 108 
43 109 
43 110 
43 113 
43 115 
43 117 
43 121 
43 124 
43 125 
43 127 
43 129 
43 130 
43 131 
43 132 
43 135 
43 137 
44 45 
44 46 
44 49 
44 52 
44 54 
44 56 
44 59 
44 60 
44 61 
44 65 
44 67 
44 68 
44 70 
44 72 
44 73 
44 74 
44 77 
44 78 
44 79 
44 80 
44 82 
44 83 
44 84 
44 90 
44 91 
44 93 
44 99 
44 100 
44 104 
44 112 
44 113 
44 115 
44 117 
44 119 
44 120 
44 121 
44 123 
44 124 
44 127 
44 129 
44 134 
44 135 
44 137 
45 48 
45 49 
45 51 
45 52 
45 54 
45 56 
45 58 
45 59 
45 63 
45 64 
45 65 
45 67 
45 70 
45 72 
45 76 
45 77 
45 82 
45 86 
45 87 
45 88 
45 89 
45 90 
45 93 
45 95 
45 96 
45 97 
45 98 
45 99 
45 102 
45 103 
45 104 
45 106 
45 107 
45 108 
45 109 
45 110 
45 111 
45 112 
45 115 
45 117 
45 119 
45 123 
45 126 
45 127 
45 129 
45 131 
45 132 
45 133 
45 134 
45 137 
46 47 
46 48 
46 51 
46 54 
46 56 
46 58 
46 61 
46 62 
46 63 
46 67 
46 69 
46 70 
46 72 
46 74 
46 75 
46 76 
46 79 
46 80 
46 81 
46 82 
46 84 
46 85 
46 86 
46 92 
46 93 
46 95 
46 101 
46 102 
46 106 
46 114 
46 115 
46 117 
46 119 
46 121 
46 122 
46 123 
46 125 
46 126 
46 129 
46 131 
46 136 
46 137 
47 50 
47 51 
47 53 
47 54 
47 56 
47 58 
47 60 
47 61 
47 65 
47 66 
47 67 
47 69 
47 72 
47 74 
47 78 
47 79 
47 84 
47 88 
47 89 
47 90 
47 91 
47 92 
47 95 
47 97 
47 98 
47 99 
47 100 
47 101 
47 104 
47 105 
47 106 
47 108 
47 109 
47 110 
47 111 
47 112 
47 113 
47 114 
47 117 
47 119 
47 121 
47 125 
47 128 
47 129 
47 131 
47 133 
47 134 
47 135 
47 136 
48 49 
48 50 
48 53 
48 56 
48 58 
48 60 
48 63 
48 64 
48 65 
48 69 
48 71 
48 72 
48 74 
48 76 
48 77 
48 78 
48 81 
48 82 
48 83 
48 84 
48 86 
48 87 
48 88 
48 94 
48 95 
48 97 
48 103 
48 104 
48 108 
48 116 
48 117 
48 119 
48 121 
48 123 
48 124 
48 125 
48 127 
48 128 
48 131 
48 133 
49 52 
49 53 
49 55 
49 56 
49 58 
49 60 
49 62 
49 63 
49 67 
49 68 
49 69 
49 71 
49 74 
49 76 
49 80 
49 81 
49 86 
49 90 
49 91 
49 92 
49 93 
49 94 
49 97 
49 99 
49 100 
49 101 
49 102 
49 103 
49 106 
49 107 
49 108 
49 110 
49 111 
49 112 
49 113 
49 114 
49 115 
49 116 
49 119 
49 121 
49 123 
49 127 
49 130 
49 131 
49 133 
49 135 
49 136 
49 137 
50 51 
50 52 
50 55 
50 58 
50 60 
50 62 
50 65 
50 66 
50 67 
50 71 
50 73 
50 74 
50 76 
50 78 
50 79 
50 80 
50 83 
50 84 
50 85 
50 86 
50 88 
50 89 
50 90 
50 96 
50 97 
50 99 
50 105 
50 106 
50 110 
50 118 
50 119 
50 121 
50 123 
50 125 
50 126 
50 127 
50 129 
50 130 
50 133 
50 135 
51 54 
51 55 
51 57 
51 58 
51 60 
51 62 
51 64 
51 65 
51 69 
51 70 
51 71 
51 73 
51 76 
51 78 
51 82 
51 83 
51 88 
51 92 
51 93 
51 94 
51 95 
51 96 
51 99 
51 101 
51 102 
51 103 
51 104 
51 105 
51 108 
51 109 
51 110 
51 112 
51 113 
51 114 
51 115 
51 116 
51 117 
51 118 
51 121 
51 123 
51 125 
51 129 
51 132 
51 133 
51 135 
51 137 
52 53 
52 54 
52 57 
52 60 
52 62 
52 64 
52 67 
52 68 
52 69 
52 73 
52 75 
52 76 
52 78 
52 80 
52 81 
52 82 
52 85 
52 86 
52 87 
52 88 
52 90 
52 91 
52 92 
52 98 
52 99 
52 101 
52 107 
52 108 
52 112 
52 120 
52 121 
52 123 
52 125 
52 127 
52 128 
52 129 
52 131 
52 132 
52 135 
52 137 
53 56 
53 57 
53 59 
53 60 
53 62 
53 64 
53 66 
53 67 
53 71 
53 72 
53 73 
53 75 
53 78 
53 80 
53 84 
53 85 
53 90 
53 94 
53 95 
53 96 
53 97 
53 98 
53 101 
53 103 
53 104 
53 105 
53 106 
53 107 
53 110 
53 111 
53 112 
53 114 
53 115 
53 116 
53 117 
53 118 
53 119 
53 120 
53 123 
53 125 
53 127 
53 131 
53 134 
53 135 
53 137 
54 55 
54 56 
54 59 
54 62 
54 64 
54 66 
54 69 
54 70 
54 71 
54 75 
54 77 
54 78 
54 80 
54 82 
54 83 
54 84 
54 87 
54 88 
54 89 
54 90 
54 92 
54 93 
54 94 
54 100 
54 101 
54 103 
54 109 
54 110 
54 114 
54 122 
54 123 
54 125 
54 127 
54 129 
54 130 
54 131 
54 133 
54 134 
54 137 
55 58 
55 59 
55 61 
55 62 
55 64 
55 66 
55 68 
55 69 
55 73 
55 74 
55 75 
55 77 
55 80 
55 82 
55 86 
55 87 
55 92 
55 96 
55 97 
55 98 
55 99 
55 100 
55 103 
55 105 
55 106 
55 107 
55 108 
55 109 
55 112 
55 113 
55 114 
55 116 
55 117 
55 118 
55 119 
55 120 
55 121 
55 122 
55 125 
55 127 
55 129 
55 133 
55 136 
55 137 
56 57 
56 58 
56 61 
56 64 
56 66 
56 68 
56 71 
56 72 
56 73 
56 77 
56 79 
56 80 
56 82 
56 84 
56 85 
56 86 
56 89 
56 90 
56 91 
56 92 
56 94 
56 95 
56 96 
56 102 
56 103 
56 105 
56 111 
56 112 
56 116 
56 124 
56 125 
56 127 
56 129 
56 131 
56 132 
56 133 
56 135 
56 136 
57 60 
57 61 
57 63 
57 64 
57 66 
57 68 
57 70 
57 71 
57 75 
57 76 
57 77 
57 79 
57 82 
57 84 
57 88 
57 89 
57 94 
57 98 
57 99 
57 100 
57 101 
57 102 
57 105 
57 107 
57 108 
57 109 
57 110 
57 111 
57 114 
57 115 
57 116 
57 118 
57 119 
57 120 
57 121 
57 122 
57 123 
57 124 
57 127 
57 129 
57 131 
57 135 
58 59 
58 60 
58 63 
58 66 
58 68 
58 70 
58 73 
58 74 
58 75 
58 79 
58 81 
58 82 
58 84 
58 86 
58 87 
58 88 
58 91 
58 92 
58 93 
58 94 
58 96 
58 97 
58 98 
58 104 
58 105 
58 107 
58 113 
58 114 
58 118 
58 126 
58 127 
58 129 
58 131 
58 133 
58 134 
58 135 
58 137 
59 62 
59 63 
59 65 
59 66 
59 68 
59 70 
59 72 
59 73 
59 77 
59 78 
59 79 
59 81 
59 84 
59 86 
59 90 
59 91 
59 96 
59 100 
59 101 
59 102 
59 103 
59 104 
59 107 
59 109 
59 110 
59 111 
59 112 
59 113 
59 116 
59 117 
59 118 
59 120 
59 121 
59 122 
59 123 
59 124 
59 125 
59 126 
59 129 
59 131 
59 133 
59 137 
60 61 
60 62 
60 65 
60 68 
60 70 
60 72 
60 75 
60 76 
60 77 
60 81 
60 83 
60 84 
60 86 
60 88 
60 89 
60 90 
60 93 
60 94 
60 95 
60 96 
60 98 
60 99 
60 100 
60 106 
60 107 
60 109 
60 115 
60 116 
60 120 
60 128 
60 129 
60 131 
60 133 
60 135 
60 136 
60 137 
61 64 
61 65 
61 67 
61 68 
61 70 
61 72 
61 74 
61 75 
61 79 
61 80 
61 81 
61 83 
61 86 
61 88 
61 92 
61 93 
61 98 
61 102 
61 103 
61 104 
61 105 
61 106 
61 109 
61 111 
61 112 
61 113 
61 114 
61 115 
61 118 
61 119 
61 120 
61 122 
61 123 
61 124 
61 125 
61 126 
61 127 
61 128 
61 131 
61 133 
61 135 
62 63 
62 64 
62 67 
62 70 
62 72 
62 74 
62 77 
62 78 
62 79 
62 83 
62 85 
62 86 
62 88 
62 90 
62 91 
62 92 
62 95 
62 96 
62 97 
62 98 
62 100 
62 101 
62 102 
62 108 
62 109 
62 111 
62 117 
62 118 
62 122 
62 130 
62 131 
62 133 
62 135 
62 137 
63 66 
63 67 
63 69 
63 70 
63 72 
63 74 
63 76 
63 77 
63 81 
63 82 
63 83 
63 85 
63 88 
63 90 
63 94 
63 95 
63 100 
63 104 
63 105 
63 106 
63 107 
63 108 
63 111 
63 113 
63 114 
63 115 
63 116 
63 117 
63 120 
63 121 
63 122 
63 124 
63 125 
63 126 
63 127 
63 128 
63 129 
63 130 
63 133 
63 135 
63 137 
64 65 
64 66 
64 69 
64 72 
64 74 
64 76 
64 79 
64 80 
64 81 
64 85 
64 87 
64 88 
64 90 
64 92 
64 93 
64 94 
64 97 
64 98 
64 99 
64 100 
64 102 
64 103 
64 104 
64 110 
64 111 
64 113 
64 119 
64 120 
64 124 
64 132 
64 133 
64 135 
64 137 
65 68 
65 69 
65 71 
65 72 
65 74 
65 76 
65 78 
65 79 
65 83 
65 84 
65 85 
65 87 
65 90 
65 92 
65 96 
65 97 
65 102 
65 106 
65 107 
65 108 
65 109 
65 110 
65 113 
65 115 
65 116 
65 117 
65 118 
65 119 
65 122 
65 123 
65 124 
65 126 
65 127 
65 128 
65 129 
65 130 
65 131 
65 132 
65 135 
65 137 
66 67 
66 68 
66 71 
66 74 
66 76 
66 78 
66 81 
66 82 
66 83 
66 87 
66 89 
66 90 
66 92 
66 94 
66 95 
66 96 
66 99 
66 100 
66 101 
66 102 
66 104 
66 105 
66 106 
66 112 
66 113 
66 115 
66 121 
66 122 
66 126 
66 134 
66 135 
66 137 
67 70 
67 71 
67 73 
67 74 
67 76 
67 78 
67 80 
67 81 
67 85 
67 86 
67 87 
67 89 
67 92 
67 94 
67 98 
67 99 
67 104 
67 108 
67 109 
67 110 
67 111 
67 112 
67 115 
67 117 
67 118 
67 119 
67 120 
67 121 
67 124 
67 125 
67 126 
67 128 
67 129 
67 130 
67 131 
67 132 
67 133 
67 134 
67 137 
68 69 
68 70 
68 73 
68 76 
68 78 
68 80 
68 83 
68 84 
68 85 
68 89 
68 91 
68 92 
68 94 
68 96 
68 97 
68 98 
68 101 
68 102 
68 103 
68 104 
68 106 
68 107 
68 108 
68 114 
68 115 
68 117 
68 123 
68 124 
68 128 
68 136 
68 137 
69 72 
69 73 
69 75 
69 76 
69 78 
69 80 
69 82 
69 83 
69 87 
69 88 
69 89 
69 91 
69 94 
69 96 
69 100 
69 101 
69 106 
69 110 
69 111 
69 112 
69 113 
69 114 
69 117 
69 119 
69 120 
69 121 
69 122 
69 123 
69 126 
69 127 
69 128 
69 130 
69 131 
69 132 
69 133 
69 134 
69 135 
69 136 
70 71 
70 72 
70 75 
70 78 
70 80 
70 82 
70 85 
70 86 
70 87 
70 91 
70 93 
70 94 
70 96 
70 98 
70 99 
70 100 
70 103 
70 104 
70 105 
70 106 
70 108 
70 109 
70 110 
70 116 
70 117 
70 119 
70 125 
70 126 
70 130 
71 74 
71 75 
71 77 
71 78 
71 80 
71 82 
71 84 
71 85 
71 89 
71 90 
71 91 
71 93 
71 96 
71 98 
71 102 
71 103 
71 108 
71 112 
71 113 
71 114 
71 115 
71 116 
71 119 
71 121 
71 122 
71 123 
71 124 
71 125 
71 128 
71 129 
71 130 
71 132 
71 133 
71 134 
71 135 
71 136 
71 137 
72 73 
72 74 
72 77 
72 80 
72 82 
72 84 
72 87 
72 88 
72 89 
72 93 
72 95 
72 96 
72 98 
72 100 
72 101 
72 102 
72 105 
72 106 
72 107 
72 108 
72 110 
72 111 
72 112 
72 118 
72 119 
72 121 
72 127 
72 128 
72 132 
73 76 
73 77 
73 79 
73 80 
73 82 
73 84 
73 86 
73 87 
73 91 
73 92 
73 93 
73 95 
73 98 
73 100 
73 104 
73 105 
73 110 
73 114 
73 115 
73 116 
73 117 
73 118 
73 121 
73 123 
73 124 
73 125 
73 126 
73 127 
73 130 
73 131 
73 132 
73 134 
73 135 
73 136 
73 137 
74 75 
74 76 
74 79 
74 82 
74 84 
74 86 
74 89 
74 90 
74 91 
74 95 
74 97 
74 98 
74 100 
74 102 
74 103 
74 104 
74 107 
74 108 
74 109 
74 110 
74 112 
74 113 
74 114 
74 120 
74 121 
74 123 
74 129 
74 130 
74 134 
75 78 
75 79 
75 81 
75 82 
75 84 
75 86 
75 88 
75 89 
75 93 
75 94 
75 95 
75 97 
75 100 
75 102 
75 106 
75 107 
75 112 
75 116 
75 117 
75 118 
75 119 
75 120 
75 123 
75 125 
75 126 
75 127 
75 128 
75 129 
75 132 
75 133 
75 134 
75 136 
75 137 
76 77 
76 78 
76 81 
76 84 
76 86 
76 88 
76 91 
76 92 
76 93 
76 97 
76 99 
76 100 
76 102 
76 104 
76 105 
76 106 
76 109 
76 110 
76 111 
76 112 
76 114 
76 115 
76 116 
76 122 
76 123 
76 125 
76 131 
76 132 
76 136 
77 80 
77 81 
77 83 
77 84 
77 86 
77 88 
77 90 
77 91 
77 95 
77 96 
77 97 
77 99 
77 102 
77 104 
77 108 
77 109 
77 114 
77 118 
77 119 
77 120 
77 121 
77 122 
77 125 
77 127 
77 128 
77 129 
77 130 
77 131 
77 134 
77 135 
77 136 
78 79 
78 80 
78 83 
78 86 
78 88 
78 90 
78 93 
78 94 
78 95 
78 99 
78 101 
78 102 
78 104 
78 106 
78 107 
78 108 
78 111 
78 112 
78 113 
78 114 
78 116 
78 117 
78 118 
78 124 
78 125 
78 127 
78 133 
78 134 
79 82 
79 83 
79 85 
79 86 
79 88 
79 90 
79 92 
79 93 
79 97 
79 98 
79 99 
79 101 
79 104 
79 106 
79 110 
79 111 
79 116 
79 120 
79 121 
79 122 
79 123 
79 124 
79 127 
79 129 
79 130 
79 131 
79 132 
79 133 
79 136 
79 137 
80 81 
80 82 
80 85 
80 88 
80 90 
80 92 
80 95 
80 96 
80 97 
80 101 
80 103 
80 104 
80 106 
80 108 
80 109 
80 110 
80 113 
80 114 
80 115 
80 116 
80 118 
80 119 
80 120 
80 126 
80 127 
80 129 
80 135 
80 136 
81 84 
81 85 
81 87 
81 88 
81 90 
81 92 
81 94 
81 95 
81 99 
81 100 
81 101 
81 103 
81 106 
81 108 
81 112 
81 113 
81 118 
81 122 
81 123 
81 124 
81 125 
81 126 
81 129 
81 131 
81 132 
81 133 
81 134 
81 135 
82 83 
82 84 
82 87 
82 90 
82 92 
82 94 
82 97 
82 98 
82 99 
82 103 
82 105 
82 106 
82 108 
82 110 
82 111 
82 112 
82 115 
82 116 
82 117 
82 118 
82 120 
82 121 
82 122 
82 128 
82 129 
82 131 
82 137 
83 86 
83 87 
83 89 
83 90 
83 92 
83 94 
83 96 
83 97 
83 101 
83 102 
83 103 
83 105 
83 108 
83 110 
83 114 
83 115 
83 120 
83 124 
83 125 
83 126 
83 127 
83 128 
83 131 
83 133 
83 134 
83 135 
83 136 
83 137 
84 85 
84 86 
84 89 
84 92 
84 94 
84 96 
84 99 
84 100 
84 101 
84 105 
84 107 
84 108 
84 110 
84 112 
84 113 
84 114 
84 117 
84 118 
84 119 
84 120 
84 122 
84 123 
84 124 
84 130 
84 131 
84 133 
85 88 
85 89 
85 91 
85 92 
85 94 
85 96 
85 98 
85 99 
85 103 
85 104 
85 105 
85 107 
85 110 
85 112 
85 116 
85 117 
85 122 
85 126 
85 127 
85 128 
85 129 
85 130 
85 133 
85 135 
85 136 
85 137 
86 87 
86 88 
86 91 
86 94 
86 96 
86 98 
86 101 
86 102 
86 103 
86 107 
86 109 
86 110 
86 112 
86 114 
86 115 
86 116 
86 119 
86 120 
86 121 
86 122 
86 124 
86 125 
86 126 
86 132 
86 133 
86 135 
87 90 
87 91 
87 93 
87 94 
87 96 
87 98 
87 100 
87 101 
87 105 
87 106 
87 107 
87 109 
87 112 
87 114 
87 118 
87 119 
87 124 
87 128 
87 129 
87 130 
87 131 
87 132 
87 135 
87 137 
88 89 
88 90 
88 93 
88 96 
88 98 
88 100 
88 103 
88 104 
88 105 
88 109 
88 111 
88 112 
88 114 
88 116 
88 117 
88 118 
88 121 
88 122 
88 123 
88 124 
88 126 
88 127 
88 128 
88 134 
88 135 
88 137 
89 92 
89 93 
89 95 
89 96 
89 98 
89 100 
89 102 
89 103 
89 107 
89 108 
89 109 
89 111 
89 114 
89 116 
89 120 
89 121 
89 126 
89 130 
89 131 
89 132 
89 133 
89 134 
89 137 
90 91 
90 92 
90 95 
90 98 
90 100 
90 102 
90 105 
90 106 
90 107 
90 111 
90 113 
90 114 
90 116 
90 118 
90 119 
90 120 
90 123 
90 124 
90 125 
90 126 
90 128 
90 129 
90 130 
90 136 
90 137 
91 94 
91 95 
91 97 
91 98 
91 100 
91 102 
91 104 
91 105 
91 109 
91 110 
91 111 
91 113 
91 116 
91 118 
91 122 
91 123 
91 128 
91 132 
91 133 
91 134 
91 135 
91 136 
92 93 
92 94 
92 97 
92 100 
92 102 
92 104 
92 107 
92 108 
92 109 
92 113 
92 115 
92 116 
92 118 
92 120 
92 121 
92 122 
92 125 
92 126 
92 127 
92 128 
92 130 
92 131 
92 132 
93 96 
93 97 
93 99 
93 100 
93 102 
93 104 
93 106 
93 107 
93 111 
93 112 
93 113 
93 115 
93 118 
93 120 
93 124 
93 125 
93 130 
93 134 
93 135 
93 136 
93 137 
94 95 
94 96 
94 99 
94 102 
94 104 
94 106 
94 109 
94 110 
94 111 
94 115 
94 117 
94 118 
94 120 
94 122 
94 123 
94 124 
94 127 
94 128 
94 129 
94 130 
94 132 
94 133 
94 134 
95 98 
95 99 
95 101 
95 102 
95 104 
95 106 
95 108 
95 109 
95 113 
95 114 
95 115 
95 117 
95 120 
95 122 
95 126 
95 127 
95 132 
95 136 
95 137 
96 97 
96 98 
96 101 
96 104 
96 106 
96 108 
96 111 
96 112 
96 113 
96 117 
96 119 
96 120 
96 122 
96 124 
96 125 
96 126 
96 129 
96 130 
96 131 
96 132 
96 134 
96 135 
96 136 
97 100 
97 101 
97 103 
97 104 
97 106 
97 108 
97 110 
97 111 
97 115 
97 116 
97 117 
97 119 
97 122 
97 124 
97 128 
97 129 
97 134 
98 99 
98 100 
98 103 
98 106 
98 108 
98 110 
98 113 
98 114 
98 115 
98 119 
98 121 
98 122 
98 124 
98 126 
98 127 
98 128 
98 131 
98 132 
98 133 
98 134 
98 136 
98 137 
99 102 
99 103 
99 105 
99 106 
99 108 
99 110 
99 112 
99 113 
99 117 
99 118 
99 119 
99 121 
99 124 
99 126 
99 130 
99 131 
99 136 
100 101 
100 102 
100 105 
100 108 
100 110 
100 112 
100 115 
100 116 
100 117 
100 121 
100 123 
100 124 
100 126 
100 128 
100 129 
100 130 
100 133 
100 134 
100 135 
100 136 
101 104 
101 105 
101 107 
101 108 
101 110 
101 112 
101 114 
101 115 
101 119 
101 120 
101 121 
101 123 
101 126 
101 128 
101 132 
101 133 
102 103 
102 104 
102 107 
102 110 
102 112 
102 114 
102 117 
102 118 
102 119 
102 123 
102 125 
102 126 
102 128 
102 130 
102 131 
102 132 
102 135 
102 136 
102 137 
103 106 
103 107 
103 109 
103 110 
103 112 
103 114 
103 116 
103 117 
103 121 
103 122 
103 123 
103 125 
103 128 
103 130 
103 134 
103 135 
104 105 
104 106 
104 109 
104 112 
104 114 
104 116 
104 119 
104 120 
104 121 
104 125 
104 127 
104 128 
104 130 
104 132 
104 133 
104 134 
104 137 
105 108 
105 109 
105 111 
105 112 
105 114 
105 116 
105 118 
105 119 
105 123 
105 124 
105 125 
105 127 
105 130 
105 132 
105 136 
105 137 
106 107 
106 108 
106 111 
106 114 
106 116 
106 118 
106 121 
106 122 
106 123 
106 127 
106 129 
106 130 
106 132 
106 134 
106 135 
106 136 
107 110 
107 111 
107 113 
107 114 
107 116 
107 118 
107 120 
107 121 
107 125 
107 126 
107 127 
107 129 
107 132 
107 134 
108 109 
108 110 
108 113 
108 116 
108 118 
108 120 
108 123 
108 124 
108 125 
108 129 
108 131 
108 132 
108 134 
108 136 
108 137 
109 112 
109 113 
109 115 
109 116 
109 118 
109 120 
109 122 
109 123 
109 127 
109 128 
109 129 
109 131 
109 134 
109 136 
110 111 
110 112 
110 115 
110 118 
110 120 
110 122 
110 125 
110 126 
110 127 
110 131 
110 133 
110 134 
110 136 
111 114 
111 115 
111 117 
111 118 
111 120 
111 122 
111 124 
111 125 
111 129 
111 130 
111 131 
111 133 
111 136 
112 113 
112 114 
112 117 
112 120 
112 122 
112 124 
112 127 
112 128 
112 129 
112 133 
112 135 
112 136 
113 116 
113 117 
113 119 
113 120 
113 122 
113 124 
113 126 
113 127 
113 131 
113 132 
113 133 
113 135 
114 115 
114 116 
114 119 
114 122 
114 124 
114 126 
114 129 
114 130 
114 131 
114 135 
114 137 
115 118 
115 119 
115 121 
115 122 
115 124 
115 126 
115 128 
115 129 
115 133 
115 134 
115 135 
115 137 
116 117 
116 118 
116 121 
116 124 
116 126 
116 128 
116 131 
116 132 
116 133 
116 137 
117 120 
117 121 
117 123 
117 124 
117 126 
117 128 
117 130 
117 131 
117 135 
117 136 
117 137 
118 119 
118 120 
118 123 
118 126 
118 128 
118 130 
118 133 
118 134 
118 135 
119 122 
119 123 
119 125 
119 126 
119 128 
119 130 
119 132 
119 133 
119 137 
120 121 
120 122 
120 125 
120 128 
120 130 
120 132 
120 135 
120 136 
120 137 
121 124 
121 125 
121 127 
121 128 
121 130 
121 132 
121 134 
121 135 
122 123 
122 124 
122 127 
122 130 
122 132 
122 134 
122 137 
123 126 
123 127 
123 129 
123 130 
123 132 
123 134 
123 136 
123 137 
124 125 
124 126 
124 129 
124 132 
124 134 
124 136 
125 128 
125 129 
125 131 
125 132 
125 134 
125 136 
126 127 
126 128 
126 131 
126 134 
126 136 
127 130 
127 131 
127 133 
127 134 
127 136 
128 129 
128 130 
128 133 
128 136 
129 132 
129 133 
129 135 
129 136 
130 131 
130 132 
130 135 
131 134 
131 135 
131 137 
132 133 
132 134 
132 137 
133 136 
133 137 
134 135 
134 136 
136 137 
